sat
(:added-eqs                   7588
 :arith-bound-propagations-lp 23912
 :arith-conflicts             222
 :arith-fixed-eqs             1754
 :arith-lower                 38258
 :arith-make-feasible         16006
 :arith-max-columns           870
 :arith-max-rows              441
 :arith-offset-eqs            5878
 :arith-upper                 30783
 :binary-propagations         47903
 :conflicts                   379
 :decisions                   11258
 :del-clause                  53
 :final-checks                1
 :max-memory                  31.34
 :memory                      21.00
 :minimized-lits              1186
 :mk-bool-var                 3799
 :mk-clause                   1218
 :mk-clause-binary            5296
 :num-allocs                  54140338
 :num-checks                  1
 :propagations                58139
 :restarts                    2
 :rlimit-count                1279892
 :solve-eqs-elim-vars         355
 :solve-eqs-steps             2203
 :time                        0.59
 :total-time                  0.61)
